(set-info :source |printed by MathSAT|)
(declare-fun __string__ (Int) Real)
(declare-fun __ADDRESS_OF_Num () Real)
(declare-fun __BASE_ADDRESS_OF__ (Real) Real)
(declare-fun Num@2 () Real)
(declare-fun |__ADDRESS_OF_main::joe| () Real)
(declare-fun |Person_create::name@2| () Real)
(declare-fun |Person_create::age@2| () Real)
(declare-fun |Person_create::height@2| () Real)
(declare-fun |Person_create::weight@2| () Real)
(declare-fun |__ADDRESS_OF_Person_create::who| () Real)
(declare-fun |__ADDRESS_OF___VERIFIER_successful_alloc_*void#0| () Real)
(declare-fun |Person_create::who@3| () Real)
(declare-fun Num@3 () Real)
(declare-fun strdup (Real) Real)
(declare-fun |*(char)*@2| (Real) Real)
(declare-fun Num@4 () Real)
(declare-fun *signed_int@2 (Real) Real)
(declare-fun *signed_int@3 (Real) Real)
(declare-fun *signed_int@4 (Real) Real)
(declare-fun |Person_create::__retval__@2| () Real)
(declare-fun |main::joe@3| () Real)
(declare-fun |__ADDRESS_OF_main::frank| () Real)
(declare-fun |Person_create::name@3| () Real)
(declare-fun |Person_create::age@3| () Real)
(declare-fun |Person_create::height@3| () Real)
(declare-fun |Person_create::weight@3| () Real)
(declare-fun |__ADDRESS_OF___VERIFIER_successful_alloc_*void#1| () Real)
(declare-fun |Person_create::who@5| () Real)
(declare-fun Num@5 () Real)
(define-fun .def_183 () Bool (<= (to_real 0) Num@5))
(define-fun .def_186 () Bool (not .def_183))
(define-fun .def_179 () Real (* (to_real (- 1)) Num@5))
(define-fun .def_180 () Real (+ Num@4 .def_179))
(define-fun .def_181 () Bool (= .def_180 (to_real 1)))
(define-fun .def_174 () Bool (= |__ADDRESS_OF___VERIFIER_successful_alloc_*void#1| |Person_create::who@5|))
(define-fun .def_169 () Real (* (to_real (- 1)) |__ADDRESS_OF___VERIFIER_successful_alloc_*void#1|))
(define-fun .def_170 () Real (+ |__ADDRESS_OF___VERIFIER_successful_alloc_*void#0| .def_169))
(define-fun .def_171 () Bool (<= .def_170 (to_real (- 16))))
(define-fun .def_167 () Bool (<= |__ADDRESS_OF___VERIFIER_successful_alloc_*void#0| (to_real (- 16))))
(define-fun .def_168 () Bool (not .def_167))
(define-fun .def_172 () Bool (and .def_168 .def_171))
(define-fun .def_175 () Bool (and .def_172 .def_174))
(define-fun .def_159 () Bool (= |Person_create::weight@3| (to_real 180)))
(define-fun .def_155 () Bool (= |Person_create::height@3| (to_real 72)))
(define-fun .def_151 () Bool (= |Person_create::age@3| (to_real 20)))
(define-fun .def_146 () Real (__string__ 5))
(define-fun .def_148 () Bool (= .def_146 |Person_create::name@3|))
(define-fun .def_152 () Bool (and .def_148 .def_151))
(define-fun .def_156 () Bool (and .def_152 .def_155))
(define-fun .def_160 () Bool (and .def_156 .def_159))
(define-fun .def_142 () Real (__BASE_ADDRESS_OF__ |__ADDRESS_OF_main::frank|))
(define-fun .def_143 () Bool (= |__ADDRESS_OF_main::frank| .def_142))
(define-fun .def_139 () Bool (= |Person_create::__retval__@2| |main::joe@3|))
(define-fun .def_123 () Real (+ |__ADDRESS_OF___VERIFIER_successful_alloc_*void#0| (to_real 8)))
(define-fun .def_125 () Real (*signed_int@3 .def_123))
(define-fun .def_124 () Real (*signed_int@4 .def_123))
(define-fun .def_126 () Bool (= .def_124 .def_125))
(define-fun .def_115 () Real (+ |__ADDRESS_OF___VERIFIER_successful_alloc_*void#0| (to_real 4)))
(define-fun .def_117 () Real (*signed_int@2 .def_115))
(define-fun .def_116 () Real (*signed_int@3 .def_115))
(define-fun .def_118 () Bool (= .def_116 .def_117))
(define-fun .def_134 () Bool (and .def_118 .def_126))
(define-fun .def_127 () Real (*signed_int@4 .def_115))
(define-fun .def_128 () Bool (= .def_116 .def_127))
(define-fun .def_135 () Bool (and .def_128 .def_134))
(define-fun .def_112 () Real (+ |Person_create::who@3| (to_real 8)))
(define-fun .def_113 () Real (*signed_int@3 .def_112))
(define-fun .def_114 () Bool (= |Person_create::height@2| .def_113))
(define-fun .def_108 () Real (+ |Person_create::who@3| (to_real 4)))
(define-fun .def_109 () Real (*signed_int@2 .def_108))
(define-fun .def_110 () Bool (= |Person_create::age@2| .def_109))
(define-fun .def_131 () Bool (and .def_110 .def_114))
(define-fun .def_120 () Real (+ |Person_create::who@3| (to_real 12)))
(define-fun .def_121 () Real (*signed_int@4 .def_120))
(define-fun .def_122 () Bool (= |Person_create::weight@2| .def_121))
(define-fun .def_132 () Bool (and .def_122 .def_131))
(define-fun .def_130 () Bool (= |Person_create::who@3| |Person_create::__retval__@2|))
(define-fun .def_133 () Bool (and .def_130 .def_132))
(define-fun .def_136 () Bool (and .def_133 .def_135))
(define-fun .def_93 () Bool (<= (to_real 0) Num@4))
(define-fun .def_89 () Real (* (to_real (- 1)) Num@4))
(define-fun .def_90 () Real (+ Num@3 .def_89))
(define-fun .def_91 () Bool (= .def_90 (to_real 1)))
(define-fun .def_84 () Real (|*(char)*@2| |Person_create::who@3|))
(define-fun .def_83 () Real (strdup |Person_create::name@2|))
(define-fun .def_85 () Bool (= .def_83 .def_84))
(define-fun .def_74 () Bool (= |Person_create::who@3| (to_real 0)))
(define-fun .def_75 () Bool (not .def_74))
(define-fun .def_54 () Bool (<= (to_real 0) Num@3))
(define-fun .def_50 () Real (* (to_real (- 1)) Num@3))
(define-fun .def_51 () Real (+ Num@2 .def_50))
(define-fun .def_52 () Bool (= .def_51 (to_real 1)))
(define-fun .def_43 () Bool (= |__ADDRESS_OF___VERIFIER_successful_alloc_*void#0| |Person_create::who@3|))
(define-fun .def_40 () Bool (<= |__ADDRESS_OF___VERIFIER_successful_alloc_*void#0| (to_real 0)))
(define-fun .def_41 () Bool (not .def_40))
(define-fun .def_44 () Bool (and .def_41 .def_43))
(define-fun .def_36 () Real (__BASE_ADDRESS_OF__ |__ADDRESS_OF_Person_create::who|))
(define-fun .def_37 () Bool (= |__ADDRESS_OF_Person_create::who| .def_36))
(define-fun .def_32 () Bool (= |Person_create::weight@2| (to_real 140)))
(define-fun .def_28 () Bool (= |Person_create::height@2| (to_real 64)))
(define-fun .def_24 () Bool (= |Person_create::age@2| (to_real 32)))
(define-fun .def_19 () Real (__string__ 0))
(define-fun .def_21 () Bool (= .def_19 |Person_create::name@2|))
(define-fun .def_25 () Bool (and .def_21 .def_24))
(define-fun .def_29 () Bool (and .def_25 .def_28))
(define-fun .def_33 () Bool (and .def_29 .def_32))
(define-fun .def_15 () Real (__BASE_ADDRESS_OF__ |__ADDRESS_OF_main::joe|))
(define-fun .def_16 () Bool (= |__ADDRESS_OF_main::joe| .def_15))
(define-fun .def_9 () Real (__BASE_ADDRESS_OF__ __ADDRESS_OF_Num))
(define-fun .def_10 () Bool (= __ADDRESS_OF_Num .def_9))
(define-fun .def_17 () Bool (and .def_10 .def_16))
(define-fun .def_13 () Bool (= Num@2 (to_real 2)))
(define-fun .def_18 () Bool (and .def_13 .def_17))
(define-fun .def_34 () Bool (and .def_18 .def_33))
(define-fun .def_38 () Bool (and .def_34 .def_37))
(define-fun .def_45 () Bool (and .def_38 .def_44))
(define-fun .def_53 () Bool (and .def_45 .def_52))
(define-fun .def_56 () Bool (and .def_53 .def_54))
(define-fun .def_77 () Bool (and .def_56 .def_75))
(define-fun .def_86 () Bool (and .def_77 .def_85))
(define-fun .def_92 () Bool (and .def_86 .def_91))
(define-fun .def_95 () Bool (and .def_92 .def_93))
(define-fun .def_137 () Bool (and .def_95 .def_136))
(define-fun .def_140 () Bool (and .def_137 .def_139))
(define-fun .def_144 () Bool (and .def_140 .def_143))
(define-fun .def_161 () Bool (and .def_144 .def_160))
(define-fun .def_162 () Bool (and .def_37 .def_161))
(define-fun .def_176 () Bool (and .def_162 .def_175))
(define-fun .def_182 () Bool (and .def_176 .def_181))
(define-fun .def_187 () Bool (and .def_182 .def_186))
(assert .def_187)
